NAME : X_26_seed_123_id_2
TYPE : CVRP
DIMENSION : 219
EDGE_WEIGHT_TYPE : EUC_2D
CAPACITY : 3
NODE_COORD_SECTION
1	0	0
2	631	880
3	465	743
4	770	675
5	837	677
6	64	82
7	293	283
8	942	968
9	46	254
10	521	343
11	473	967
12	132	908
13	341	545
14	920	662
15	232	879
16	340	770
17	775	685
18	241	957
19	678	818
20	230	789
21	812	202
22	662	432
23	335	755
24	635	690
25	539	866
26	873	284
27	954	759
28	869	709
29	752	845
30	220	496
31	509	923
32	969	621
33	430	515
34	471	641
35	365	63
36	284	856
37	94	942
38	237	526
39	165	864
40	241	688
41	199	551
42	911	101
43	363	1000
44	801	894
45	645	358
46	487	752
47	854	948
48	625	148
49	354	238
50	924	482
51	513	864
52	281	811
53	479	17
54	353	29
55	619	22
56	47	438
57	211	493
58	638	505
59	22	551
60	575	71
61	397	379
62	470	877
63	77	1
64	377	3
65	727	242
66	867	264
67	527	863
68	159	26
69	14	323
70	227	792
71	14	763
72	11	70
73	739	407
74	581	111
75	168	571
76	492	286
77	404	59
78	74	975
79	461	984
80	269	357
81	337	269
82	407	498
83	711	236
84	536	993
85	876	107
86	667	87
87	17	56
88	865	681
89	834	139
90	419	324
91	82	75
92	858	272
93	170	91
94	39	277
95	703	393
96	360	645
97	16	331
98	446	709
99	490	469
100	945	79
101	195	920
102	32	760
103	0	590
104	127	144
105	426	441
106	146	565
107	369	338
108	595	768
109	214	655
110	663	723
111	974	191
112	697	663
113	953	100
114	959	168
115	160	223
116	441	892
117	695	862
118	782	832
119	880	395
120	162	548
121	239	541
122	729	10
123	955	799
124	769	393
125	123	173
126	533	840
127	117	54
128	442	285
129	692	856
130	788	849
131	787	231
132	463	368
133	166	802
134	540	365
135	567	989
136	371	950
137	948	175
138	578	950
139	287	825
140	333	217
141	324	27
142	839	620
143	751	480
144	739	827
145	780	467
146	273	946
147	49	979
148	298	736
149	852	301
150	23	987
151	4	925
152	298	820
153	919	614
154	397	739
155	419	153
156	758	780
157	231	788
158	345	353
159	551	205
160	980	810
161	570	560
162	174	753
163	146	907
164	291	377
165	861	875
166	32	619
167	382	342
168	829	936
169	460	219
170	219	786
171	100	542
172	561	681
173	870	16
174	731	707
175	773	315
176	786	697
177	214	551
178	379	812
179	41	837
180	151	661
181	52	724
182	333	151
183	920	144
184	122	114
185	877	930
186	208	567
187	283	705
188	545	64
189	622	895
190	642	442
191	823	21
192	425	387
193	462	99
194	742	629
195	779	292
196	751	552
197	57	62
198	326	478
199	900	90
200	344	528
201	923	886
202	922	436
203	793	688
204	92	315
205	538	592
206	636	37
207	335	904
208	799	768
209	520	305
210	454	747
211	932	743
212	754	876
213	507	510
214	133	164
215	125	806
216	643	944
217	420	201
218	905	112
219	866	519
DEMAND_SECTION
1	0
2	1
3	1
4	1
5	1
6	1
7	1
8	1
9	1
10	1
11	1
12	1
13	1
14	1
15	1
16	1
17	1
18	1
19	1
20	1
21	1
22	1
23	1
24	1
25	1
26	1
27	1
28	1
29	1
30	1
31	1
32	1
33	1
34	1
35	1
36	1
37	1
38	1
39	1
40	1
41	1
42	1
43	1
44	1
45	1
46	1
47	1
48	1
49	1
50	1
51	1
52	1
53	1
54	1
55	1
56	1
57	1
58	1
59	1
60	1
61	1
62	1
63	1
64	1
65	1
66	1
67	1
68	1
69	1
70	1
71	1
72	1
73	1
74	1
75	1
76	1
77	1
78	1
79	1
80	1
81	1
82	1
83	1
84	1
85	1
86	1
87	1
88	1
89	1
90	1
91	1
92	1
93	1
94	1
95	1
96	1
97	1
98	1
99	1
100	1
101	1
102	1
103	1
104	1
105	1
106	1
107	1
108	1
109	1
110	1
111	1
112	1
113	1
114	1
115	1
116	1
117	1
118	1
119	1
120	1
121	1
122	1
123	1
124	1
125	1
126	1
127	1
128	1
129	1
130	1
131	1
132	1
133	1
134	1
135	1
136	1
137	1
138	1
139	1
140	1
141	1
142	1
143	1
144	1
145	1
146	1
147	1
148	1
149	1
150	1
151	1
152	1
153	1
154	1
155	1
156	1
157	1
158	1
159	1
160	1
161	1
162	1
163	1
164	1
165	1
166	1
167	1
168	1
169	1
170	1
171	1
172	1
173	1
174	1
175	1
176	1
177	1
178	1
179	1
180	1
181	1
182	1
183	1
184	1
185	1
186	1
187	1
188	1
189	1
190	1
191	1
192	1
193	1
194	1
195	1
196	1
197	1
198	1
199	1
200	1
201	1
202	1
203	1
204	1
205	1
206	1
207	1
208	1
209	1
210	1
211	1
212	1
213	1
214	1
215	1
216	1
217	1
218	1
219	1
DEPOT_SECTION
1
-1
EOF
